(declare-fun var0 () String)
(assert (RegexIn var0 (RegexConcat (RegexStar (RegexUnion (Str2Reg "===") (Str2Reg ">>>"))) (RegexConcat (RegexUnion (RegexUnion (Str2Reg ":::") (Str2Reg ";;;")) (RegexPlus (Str2Reg "<"))) (RegexConcat (RegexUnion (RegexPlus (Str2Reg "...")) (RegexStar (Str2Reg "/"))) (RegexConcat (RegexUnion (RegexPlus (Str2Reg ",")) (RegexPlus (Str2Reg "---"))) (RegexConcat (RegexStar (RegexStar (Str2Reg "+"))) (RegexConcat (RegexStar (RegexUnion (Str2Reg ")))") (Str2Reg "**"))) (RegexConcat (RegexPlus (RegexPlus (Str2Reg "(("))) (RegexConcat (RegexStar (RegexPlus (Str2Reg "'"))) (RegexConcat (RegexStar (RegexPlus (Str2Reg "&&&"))) (RegexConcat (RegexStar (RegexUnion (Str2Reg "$$") (Str2Reg "%%%"))) (RegexConcat (RegexUnion (RegexPlus (Str2Reg "\"\"")) (RegexPlus (Str2Reg "##"))) (RegexConcat (RegexStar (RegexStar (Str2Reg "!!!"))) (RegexConcat (RegexPlus (RegexPlus (Str2Reg "ZZZ"))) (RegexConcat (RegexUnion (RegexPlus (Str2Reg "XX")) (RegexPlus (Str2Reg "Y"))) (RegexConcat (RegexUnion (RegexPlus (Str2Reg "VVV")) (RegexPlus (Str2Reg "WW"))) (RegexConcat (RegexUnion (RegexUnion (Str2Reg "S") (Str2Reg "TTT")) (RegexPlus (Str2Reg "U"))) (RegexConcat (RegexUnion (RegexUnion (Str2Reg "P") (Str2Reg "QQ")) (RegexPlus (Str2Reg "RRR"))) (RegexConcat (RegexStar (RegexUnion (Str2Reg "N") (Str2Reg "OO"))) (RegexConcat (RegexStar (RegexPlus (Str2Reg "M"))) (RegexConcat (RegexPlus (RegexUnion (Str2Reg "KK") (Str2Reg "LLL"))) (RegexConcat (RegexStar (RegexPlus (Str2Reg "J"))) (RegexConcat (RegexPlus (RegexStar (Str2Reg "III"))) (RegexConcat (RegexStar (RegexPlus (Str2Reg "H"))) (RegexConcat (RegexUnion (RegexPlus (Str2Reg "FFF")) (RegexPlus (Str2Reg "GG"))) (RegexConcat (RegexStar (RegexUnion (Str2Reg "DD") (Str2Reg "E"))) (RegexConcat (RegexPlus (RegexStar (Str2Reg "C"))) (RegexConcat (RegexStar (RegexUnion (Str2Reg "AA") (Str2Reg "BB"))) (RegexConcat (RegexStar (RegexUnion (Str2Reg "yyy") (Str2Reg "zz"))) (RegexConcat (RegexUnion (RegexStar (Str2Reg "w")) (RegexStar (Str2Reg "xxx"))) (RegexConcat (RegexStar (RegexStar (Str2Reg "v"))) (RegexConcat (RegexUnion (RegexStar (Str2Reg "t")) (RegexPlus (Str2Reg "uuu"))) (RegexConcat (RegexPlus (RegexPlus (Str2Reg "sss"))) (RegexConcat (RegexStar (RegexStar (Str2Reg "r"))) (RegexConcat (RegexPlus (RegexUnion (Str2Reg "p") (Str2Reg "qqq"))) (RegexConcat (RegexUnion (RegexUnion (Str2Reg "l") (Str2Reg "m")) (RegexUnion (Str2Reg "nnn") (Str2Reg "oo"))) (RegexConcat (RegexPlus (RegexUnion (Str2Reg "jj") (Str2Reg "kk"))) (RegexConcat (RegexStar (RegexPlus (Str2Reg "iii"))) (RegexConcat (RegexPlus (RegexStar (Str2Reg "hh"))) (RegexConcat (RegexUnion (RegexStar (Str2Reg "fff")) (RegexStar (Str2Reg "gg"))) (RegexConcat (RegexUnion (RegexPlus (Str2Reg "c")) (RegexUnion (Str2Reg "d") (Str2Reg "eee"))) (RegexConcat (RegexStar (RegexUnion (Str2Reg "aa") (Str2Reg "b"))) (RegexConcat (RegexPlus (RegexPlus (Str2Reg "9"))) (RegexConcat (RegexUnion (RegexPlus (Str2Reg "777")) (RegexPlus (Str2Reg "88"))) (RegexConcat (RegexPlus (RegexPlus (Str2Reg "666"))) (RegexConcat (RegexStar (RegexStar (Str2Reg "5"))) (RegexConcat (RegexUnion (RegexPlus (Str2Reg "333")) (RegexStar (Str2Reg "44"))) (RegexUnion (RegexPlus (Str2Reg "000")) (RegexUnion (Str2Reg "111") (Str2Reg "222")))))))))))))))))))))))))))))))))))))))))))))))))))
(check-sat)